p tw 144 23761 2 
1 3 
1 4 
1 5 
1 6 
1 7 
1 8 
1 9 
1 10 
1 11 
1 12 
1 13 
1 24 
1 25 
1 35 
1 37 
1 46 
1 49 
1 57 
1 61 
1 68 
1 73 
1 79 
1 85 
1 90 
1 97 
1 101 
1 109 
1 112 
1 121 
1 123 
1 133 
1 134 
2 3 
2 4 
2 5 
2 6 
2 7 
2 8 
2 9 
2 10 
2 11 
2 12 
2 13 
2 14 
2 26 
2 36 
2 38 
2 47 
2 50 
2 58 
2 62 
2 69 
2 74 
2 80 
2 86 
2 91 
2 98 
2 102 
2 110 
2 113 
2 122 
2 124 
2 134 
2 135 
3 4 
3 5 
3 6 
3 7 
3 8 
3 9 
3 10 
3 11 
3 12 
3 14 
3 15 
3 25 
3 27 
3 39 
3 48 
3 51 
3 59 
3 63 
3 70 
3 75 
3 81 
3 87 
3 92 
3 99 
3 103 
3 111 
3 114 
3 123 
3 125 
3 135 
3 136 
4 5 
4 6 
4 7 
4 8 
4 9 
4 10 
4 11 
4 12 
4 15 
4 16 
4 26 
4 28 
4 37 
4 40 
4 52 
4 60 
4 64 
4 71 
4 76 
4 82 
4 88 
4 93 
4 100 
4 104 
4 112 
4 115 
4 124 
4 126 
4 136 
4 137 
5 6 
5 7 
5 8 
5 9 
5 10 
5 11 
5 12 
5 16 
5 17 
5 27 
5 29 
5 38 
5 41 
5 49 
5 53 
5 65 
5 72 
5 77 
5 83 
5 89 
5 94 
5 101 
5 105 
5 113 
5 116 
5 125 
5 127 
5 137 
5 138 
6 7 
6 8 
6 9 
6 10 
6 11 
6 12 
6 17 
6 18 
6 28 
6 30 
6 39 
6 42 
6 50 
6 54 
6 61 
6 66 
6 78 
6 84 
6 90 
6 95 
6 102 
6 106 
6 114 
6 117 
6 126 
6 128 
6 138 
6 139 
7 8 
7 9 
7 10 
7 11 
7 12 
7 18 
7 19 
7 29 
7 31 
7 40 
7 43 
7 51 
7 55 
7 62 
7 67 
7 73 
7 79 
7 91 
7 96 
7 103 
7 107 
7 115 
7 118 
7 127 
7 129 
7 139 
7 140 
8 9 
8 10 
8 11 
8 12 
8 19 
8 20 
8 30 
8 32 
8 41 
8 44 
8 52 
8 56 
8 63 
8 68 
8 74 
8 80 
8 85 
8 92 
8 104 
8 108 
8 116 
8 119 
8 128 
8 130 
8 140 
8 141 
9 10 
9 11 
9 12 
9 20 
9 21 
9 31 
9 33 
9 42 
9 45 
9 53 
9 57 
9 64 
9 69 
9 75 
9 81 
9 86 
9 93 
9 97 
9 105 
9 117 
9 120 
9 129 
9 131 
9 141 
9 142 
10 11 
10 12 
10 21 
10 22 
10 32 
10 34 
10 43 
10 46 
10 54 
10 58 
10 65 
10 70 
10 76 
10 82 
10 87 
10 94 
10 98 
10 106 
10 109 
10 118 
10 130 
10 132 
10 142 
10 143 
11 12 
11 22 
11 23 
11 33 
11 35 
11 44 
11 47 
11 55 
11 59 
11 66 
11 71 
11 77 
11 83 
11 88 
11 95 
11 99 
11 107 
11 110 
11 119 
11 121 
11 131 
11 143 
11 144 
12 23 
12 24 
12 34 
12 36 
12 45 
12 48 
12 56 
12 60 
12 67 
12 72 
12 78 
12 84 
12 89 
12 96 
12 100 
12 108 
12 111 
12 120 
12 122 
12 132 
12 133 
12 144 
13 14 
13 15 
13 16 
13 17 
13 18 
13 19 
13 20 
13 21 
13 22 
13 23 
13 24 
13 25 
13 36 
13 37 
13 47 
13 49 
13 58 
13 61 
13 69 
13 73 
13 80 
13 85 
13 91 
13 97 
13 102 
13 109 
13 113 
13 121 
13 124 
13 133 
13 135 
14 15 
14 16 
14 17 
14 18 
14 19 
14 20 
14 21 
14 22 
14 23 
14 24 
14 25 
14 26 
14 38 
14 48 
14 50 
14 59 
14 62 
14 70 
14 74 
14 81 
14 86 
14 92 
14 98 
14 103 
14 110 
14 114 
14 122 
14 125 
14 134 
14 136 
15 16 
15 17 
15 18 
15 19 
15 20 
15 21 
15 22 
15 23 
15 24 
15 26 
15 27 
15 37 
15 39 
15 51 
15 60 
15 63 
15 71 
15 75 
15 82 
15 87 
15 93 
15 99 
15 104 
15 111 
15 115 
15 123 
15 126 
15 135 
15 137 
16 17 
16 18 
16 19 
16 20 
16 21 
16 22 
16 23 
16 24 
16 27 
16 28 
16 38 
16 40 
16 49 
16 52 
16 64 
16 72 
16 76 
16 83 
16 88 
16 94 
16 100 
16 105 
16 112 
16 116 
16 124 
16 127 
16 136 
16 138 
17 18 
17 19 
17 20 
17 21 
17 22 
17 23 
17 24 
17 28 
17 29 
17 39 
17 41 
17 50 
17 53 
17 61 
17 65 
17 77 
17 84 
17 89 
17 95 
17 101 
17 106 
17 113 
17 117 
17 125 
17 128 
17 137 
17 139 
18 19 
18 20 
18 21 
18 22 
18 23 
18 24 
18 29 
18 30 
18 40 
18 42 
18 51 
18 54 
18 62 
18 66 
18 73 
18 78 
18 90 
18 96 
18 102 
18 107 
18 114 
18 118 
18 126 
18 129 
18 138 
18 140 
19 20 
19 21 
19 22 
19 23 
19 24 
19 30 
19 31 
19 41 
19 43 
19 52 
19 55 
19 63 
19 67 
19 74 
19 79 
19 85 
19 91 
19 103 
19 108 
19 115 
19 119 
19 127 
19 130 
19 139 
19 141 
20 21 
20 22 
20 23 
20 24 
20 31 
20 32 
20 42 
20 44 
20 53 
20 56 
20 64 
20 68 
20 75 
20 80 
20 86 
20 92 
20 97 
20 104 
20 116 
20 120 
20 128 
20 131 
20 140 
20 142 
21 22 
21 23 
21 24 
21 32 
21 33 
21 43 
21 45 
21 54 
21 57 
21 65 
21 69 
21 76 
21 81 
21 87 
21 93 
21 98 
21 105 
21 109 
21 117 
21 129 
21 132 
21 141 
21 143 
22 23 
22 24 
22 33 
22 34 
22 44 
22 46 
22 55 
22 58 
22 66 
22 70 
22 77 
22 82 
22 88 
22 94 
22 99 
22 106 
22 110 
22 118 
22 121 
22 130 
22 142 
22 144 
23 24 
23 34 
23 35 
23 45 
23 47 
23 56 
23 59 
23 67 
23 71 
23 78 
23 83 
23 89 
23 95 
23 100 
23 107 
23 111 
23 119 
23 122 
23 131 
23 133 
23 143 
24 35 
24 36 
24 46 
24 48 
24 57 
24 60 
24 68 
24 72 
24 79 
24 84 
24 90 
24 96 
24 101 
24 108 
24 112 
24 120 
24 123 
24 132 
24 134 
24 144 
25 26 
25 27 
25 28 
25 29 
25 30 
25 31 
25 32 
25 33 
25 34 
25 35 
25 36 
25 37 
25 48 
25 49 
25 59 
25 61 
25 70 
25 73 
25 81 
25 85 
25 92 
25 97 
25 103 
25 109 
25 114 
25 121 
25 125 
25 133 
25 136 
26 27 
26 28 
26 29 
26 30 
26 31 
26 32 
26 33 
26 34 
26 35 
26 36 
26 37 
26 38 
26 50 
26 60 
26 62 
26 71 
26 74 
26 82 
26 86 
26 93 
26 98 
26 104 
26 110 
26 115 
26 122 
26 126 
26 134 
26 137 
27 28 
27 29 
27 30 
27 31 
27 32 
27 33 
27 34 
27 35 
27 36 
27 38 
27 39 
27 49 
27 51 
27 63 
27 72 
27 75 
27 83 
27 87 
27 94 
27 99 
27 105 
27 111 
27 116 
27 123 
27 127 
27 135 
27 138 
28 29 
28 30 
28 31 
28 32 
28 33 
28 34 
28 35 
28 36 
28 39 
28 40 
28 50 
28 52 
28 61 
28 64 
28 76 
28 84 
28 88 
28 95 
28 100 
28 106 
28 112 
28 117 
28 124 
28 128 
28 136 
28 139 
29 30 
29 31 
29 32 
29 33 
29 34 
29 35 
29 36 
29 40 
29 41 
29 51 
29 53 
29 62 
29 65 
29 73 
29 77 
29 89 
29 96 
29 101 
29 107 
29 113 
29 118 
29 125 
29 129 
29 137 
29 140 
30 31 
30 32 
30 33 
30 34 
30 35 
30 36 
30 41 
30 42 
30 52 
30 54 
30 63 
30 66 
30 74 
30 78 
30 85 
30 90 
30 102 
30 108 
30 114 
30 119 
30 126 
30 130 
30 138 
30 141 
31 32 
31 33 
31 34 
31 35 
31 36 
31 42 
31 43 
31 53 
31 55 
31 64 
31 67 
31 75 
31 79 
31 86 
31 91 
31 97 
31 103 
31 115 
31 120 
31 127 
31 131 
31 139 
31 142 
32 33 
32 34 
32 35 
32 36 
32 43 
32 44 
32 54 
32 56 
32 65 
32 68 
32 76 
32 80 
32 87 
32 92 
32 98 
32 104 
32 109 
32 116 
32 128 
32 132 
32 140 
32 143 
33 34 
33 35 
33 36 
33 44 
33 45 
33 55 
33 57 
33 66 
33 69 
33 77 
33 81 
33 88 
33 93 
33 99 
33 105 
33 110 
33 117 
33 121 
33 129 
33 141 
33 144 
34 35 
34 36 
34 45 
34 46 
34 56 
34 58 
34 67 
34 70 
34 78 
34 82 
34 89 
34 94 
34 100 
34 106 
34 111 
34 118 
34 122 
34 130 
34 133 
34 142 
35 36 
35 46 
35 47 
35 57 
35 59 
35 68 
35 71 
35 79 
35 83 
35 90 
35 95 
35 101 
35 107 
35 112 
35 119 
35 123 
35 131 
35 134 
35 143 
36 47 
36 48 
36 58 
36 60 
36 69 
36 72 
36 80 
36 84 
36 91 
36 96 
36 102 
36 108 
36 113 
36 120 
36 124 
36 132 
36 135 
36 144 
37 38 
37 39 
37 40 
37 41 
37 42 
37 43 
37 44 
37 45 
37 46 
37 47 
37 48 
37 49 
37 60 
37 61 
37 71 
37 73 
37 82 
37 85 
37 93 
37 97 
37 104 
37 109 
37 115 
37 121 
37 126 
37 133 
37 137 
38 39 
38 40 
38 41 
38 42 
38 43 
38 44 
38 45 
38 46 
38 47 
38 48 
38 49 
38 50 
38 62 
38 72 
38 74 
38 83 
38 86 
38 94 
38 98 
38 105 
38 110 
38 116 
38 122 
38 127 
38 134 
38 138 
39 40 
39 41 
39 42 
39 43 
39 44 
39 45 
39 46 
39 47 
39 48 
39 50 
39 51 
39 61 
39 63 
39 75 
39 84 
39 87 
39 95 
39 99 
39 106 
39 111 
39 117 
39 123 
39 128 
39 135 
39 139 
40 41 
40 42 
40 43 
40 44 
40 45 
40 46 
40 47 
40 48 
40 51 
40 52 
40 62 
40 64 
40 73 
40 76 
40 88 
40 96 
40 100 
40 107 
40 112 
40 118 
40 124 
40 129 
40 136 
40 140 
41 42 
41 43 
41 44 
41 45 
41 46 
41 47 
41 48 
41 52 
41 53 
41 63 
41 65 
41 74 
41 77 
41 85 
41 89 
41 101 
41 108 
41 113 
41 119 
41 125 
41 130 
41 137 
41 141 
42 43 
42 44 
42 45 
42 46 
42 47 
42 48 
42 53 
42 54 
42 64 
42 66 
42 75 
42 78 
42 86 
42 90 
42 97 
42 102 
42 114 
42 120 
42 126 
42 131 
42 138 
42 142 
43 44 
43 45 
43 46 
43 47 
43 48 
43 54 
43 55 
43 65 
43 67 
43 76 
43 79 
43 87 
43 91 
43 98 
43 103 
43 109 
43 115 
43 127 
43 132 
43 139 
43 143 
44 45 
44 46 
44 47 
44 48 
44 55 
44 56 
44 66 
44 68 
44 77 
44 80 
44 88 
44 92 
44 99 
44 104 
44 110 
44 116 
44 121 
44 128 
44 140 
44 144 
45 46 
45 47 
45 48 
45 56 
45 57 
45 67 
45 69 
45 78 
45 81 
45 89 
45 93 
45 100 
45 105 
45 111 
45 117 
45 122 
45 129 
45 133 
45 141 
46 47 
46 48 
46 57 
46 58 
46 68 
46 70 
46 79 
46 82 
46 90 
46 94 
46 101 
46 106 
46 112 
46 118 
46 123 
46 130 
46 134 
46 142 
47 48 
47 58 
47 59 
47 69 
47 71 
47 80 
47 83 
47 91 
47 95 
47 102 
47 107 
47 113 
47 119 
47 124 
47 131 
47 135 
47 143 
48 59 
48 60 
48 70 
48 72 
48 81 
48 84 
48 92 
48 96 
48 103 
48 108 
48 114 
48 120 
48 125 
48 132 
48 136 
48 144 
49 50 
49 51 
49 52 
49 53 
49 54 
49 55 
49 56 
49 57 
49 58 
49 59 
49 60 
49 61 
49 72 
49 73 
49 83 
49 85 
49 94 
49 97 
49 105 
49 109 
49 116 
49 121 
49 127 
49 133 
49 138 
50 51 
50 52 
50 53 
50 54 
50 55 
50 56 
50 57 
50 58 
50 59 
50 60 
50 61 
50 62 
50 74 
50 84 
50 86 
50 95 
50 98 
50 106 
50 110 
50 117 
50 122 
50 128 
50 134 
50 139 
51 52 
51 53 
51 54 
51 55 
51 56 
51 57 
51 58 
51 59 
51 60 
51 62 
51 63 
51 73 
51 75 
51 87 
51 96 
51 99 
51 107 
51 111 
51 118 
51 123 
51 129 
51 135 
51 140 
52 53 
52 54 
52 55 
52 56 
52 57 
52 58 
52 59 
52 60 
52 63 
52 64 
52 74 
52 76 
52 85 
52 88 
52 100 
52 108 
52 112 
52 119 
52 124 
52 130 
52 136 
52 141 
53 54 
53 55 
53 56 
53 57 
53 58 
53 59 
53 60 
53 64 
53 65 
53 75 
53 77 
53 86 
53 89 
53 97 
53 101 
53 113 
53 120 
53 125 
53 131 
53 137 
53 142 
54 55 
54 56 
54 57 
54 58 
54 59 
54 60 
54 65 
54 66 
54 76 
54 78 
54 87 
54 90 
54 98 
54 102 
54 109 
54 114 
54 126 
54 132 
54 138 
54 143 
55 56 
55 57 
55 58 
55 59 
55 60 
55 66 
55 67 
55 77 
55 79 
55 88 
55 91 
55 99 
55 103 
55 110 
55 115 
55 121 
55 127 
55 139 
55 144 
56 57 
56 58 
56 59 
56 60 
56 67 
56 68 
56 78 
56 80 
56 89 
56 92 
56 100 
56 104 
56 111 
56 116 
56 122 
56 128 
56 133 
56 140 
57 58 
57 59 
57 60 
57 68 
57 69 
57 79 
57 81 
57 90 
57 93 
57 101 
57 105 
57 112 
57 117 
57 123 
57 129 
57 134 
57 141 
58 59 
58 60 
58 69 
58 70 
58 80 
58 82 
58 91 
58 94 
58 102 
58 106 
58 113 
58 118 
58 124 
58 130 
58 135 
58 142 
59 60 
59 70 
59 71 
59 81 
59 83 
59 92 
59 95 
59 103 
59 107 
59 114 
59 119 
59 125 
59 131 
59 136 
59 143 
60 71 
60 72 
60 82 
60 84 
60 93 
60 96 
60 104 
60 108 
60 115 
60 120 
60 126 
60 132 
60 137 
60 144 
61 62 
61 63 
61 64 
61 65 
61 66 
61 67 
61 68 
61 69 
61 70 
61 71 
61 72 
61 73 
61 84 
61 85 
61 95 
61 97 
61 106 
61 109 
61 117 
61 121 
61 128 
61 133 
61 139 
62 63 
62 64 
62 65 
62 66 
62 67 
62 68 
62 69 
62 70 
62 71 
62 72 
62 73 
62 74 
62 86 
62 96 
62 98 
62 107 
62 110 
62 118 
62 122 
62 129 
62 134 
62 140 
63 64 
63 65 
63 66 
63 67 
63 68 
63 69 
63 70 
63 71 
63 72 
63 74 
63 75 
63 85 
63 87 
63 99 
63 108 
63 111 
63 119 
63 123 
63 130 
63 135 
63 141 
64 65 
64 66 
64 67 
64 68 
64 69 
64 70 
64 71 
64 72 
64 75 
64 76 
64 86 
64 88 
64 97 
64 100 
64 112 
64 120 
64 124 
64 131 
64 136 
64 142 
65 66 
65 67 
65 68 
65 69 
65 70 
65 71 
65 72 
65 76 
65 77 
65 87 
65 89 
65 98 
65 101 
65 109 
65 113 
65 125 
65 132 
65 137 
65 143 
66 67 
66 68 
66 69 
66 70 
66 71 
66 72 
66 77 
66 78 
66 88 
66 90 
66 99 
66 102 
66 110 
66 114 
66 121 
66 126 
66 138 
66 144 
67 68 
67 69 
67 70 
67 71 
67 72 
67 78 
67 79 
67 89 
67 91 
67 100 
67 103 
67 111 
67 115 
67 122 
67 127 
67 133 
67 139 
68 69 
68 70 
68 71 
68 72 
68 79 
68 80 
68 90 
68 92 
68 101 
68 104 
68 112 
68 116 
68 123 
68 128 
68 134 
68 140 
69 70 
69 71 
69 72 
69 80 
69 81 
69 91 
69 93 
69 102 
69 105 
69 113 
69 117 
69 124 
69 129 
69 135 
69 141 
70 71 
70 72 
70 81 
70 82 
70 92 
70 94 
70 103 
70 106 
70 114 
70 118 
70 125 
70 130 
70 136 
70 142 
71 72 
71 82 
71 83 
71 93 
71 95 
71 104 
71 107 
71 115 
71 119 
71 126 
71 131 
71 137 
71 143 
72 83 
72 84 
72 94 
72 96 
72 105 
72 108 
72 116 
72 120 
72 127 
72 132 
72 138 
72 144 
73 74 
73 75 
73 76 
73 77 
73 78 
73 79 
73 80 
73 81 
73 82 
73 83 
73 84 
73 85 
73 96 
73 97 
73 107 
73 109 
73 118 
73 121 
73 129 
73 133 
73 140 
74 75 
74 76 
74 77 
74 78 
74 79 
74 80 
74 81 
74 82 
74 83 
74 84 
74 85 
74 86 
74 98 
74 108 
74 110 
74 119 
74 122 
74 130 
74 134 
74 141 
75 76 
75 77 
75 78 
75 79 
75 80 
75 81 
75 82 
75 83 
75 84 
75 86 
75 87 
75 97 
75 99 
75 111 
75 120 
75 123 
75 131 
75 135 
75 142 
76 77 
76 78 
76 79 
76 80 
76 81 
76 82 
76 83 
76 84 
76 87 
76 88 
76 98 
76 100 
76 109 
76 112 
76 124 
76 132 
76 136 
76 143 
77 78 
77 79 
77 80 
77 81 
77 82 
77 83 
77 84 
77 88 
77 89 
77 99 
77 101 
77 110 
77 113 
77 121 
77 125 
77 137 
77 144 
78 79 
78 80 
78 81 
78 82 
78 83 
78 84 
78 89 
78 90 
78 100 
78 102 
78 111 
78 114 
78 122 
78 126 
78 133 
78 138 
79 80 
79 81 
79 82 
79 83 
79 84 
79 90 
79 91 
79 101 
79 103 
79 112 
79 115 
79 123 
79 127 
79 134 
79 139 
80 81 
80 82 
80 83 
80 84 
80 91 
80 92 
80 102 
80 104 
80 113 
80 116 
80 124 
80 128 
80 135 
80 140 
81 82 
81 83 
81 84 
81 92 
81 93 
81 103 
81 105 
81 114 
81 117 
81 125 
81 129 
81 136 
81 141 
82 83 
82 84 
82 93 
82 94 
82 104 
82 106 
82 115 
82 118 
82 126 
82 130 
82 137 
82 142 
83 84 
83 94 
83 95 
83 105 
83 107 
83 116 
83 119 
83 127 
83 131 
83 138 
83 143 
84 95 
84 96 
84 106 
84 108 
84 117 
84 120 
84 128 
84 132 
84 139 
84 144 
85 86 
85 87 
85 88 
85 89 
85 90 
85 91 
85 92 
85 93 
85 94 
85 95 
85 96 
85 97 
85 108 
85 109 
85 119 
85 121 
85 130 
85 133 
85 141 
86 87 
86 88 
86 89 
86 90 
86 91 
86 92 
86 93 
86 94 
86 95 
86 96 
86 97 
86 98 
86 110 
86 120 
86 122 
86 131 
86 134 
86 142 
87 88 
87 89 
87 90 
87 91 
87 92 
87 93 
87 94 
87 95 
87 96 
87 98 
87 99 
87 109 
87 111 
87 123 
87 132 
87 135 
87 143 
88 89 
88 90 
88 91 
88 92 
88 93 
88 94 
88 95 
88 96 
88 99 
88 100 
88 110 
88 112 
88 121 
88 124 
88 136 
88 144 
89 90 
89 91 
89 92 
89 93 
89 94 
89 95 
89 96 
89 100 
89 101 
89 111 
89 113 
89 122 
89 125 
89 133 
89 137 
90 91 
90 92 
90 93 
90 94 
90 95 
90 96 
90 101 
90 102 
90 112 
90 114 
90 123 
90 126 
90 134 
90 138 
91 92 
91 93 
91 94 
91 95 
91 96 
91 102 
91 103 
91 113 
91 115 
91 124 
91 127 
91 135 
91 139 
92 93 
92 94 
92 95 
92 96 
92 103 
92 104 
92 114 
92 116 
92 125 
92 128 
92 136 
92 140 
93 94 
93 95 
93 96 
93 104 
93 105 
93 115 
93 117 
93 126 
93 129 
93 137 
93 141 
94 95 
94 96 
94 105 
94 106 
94 116 
94 118 
94 127 
94 130 
94 138 
94 142 
95 96 
95 106 
95 107 
95 117 
95 119 
95 128 
95 131 
95 139 
95 143 
96 107 
96 108 
96 118 
96 120 
96 129 
96 132 
96 140 
96 144 
97 98 
97 99 
97 100 
97 101 
97 102 
97 103 
97 104 
97 105 
97 106 
97 107 
97 108 
97 109 
97 120 
97 121 
97 131 
97 133 
97 142 
98 99 
98 100 
98 101 
98 102 
98 103 
98 104 
98 105 
98 106 
98 107 
98 108 
98 109 
98 110 
98 122 
98 132 
98 134 
98 143 
99 100 
99 101 
99 102 
99 103 
99 104 
99 105 
99 106 
99 107 
99 108 
99 110 
99 111 
99 121 
99 123 
99 135 
99 144 
100 101 
100 102 
100 103 
100 104 
100 105 
100 106 
100 107 
100 108 
100 111 
100 112 
100 122 
100 124 
100 133 
100 136 
101 102 
101 103 
101 104 
101 105 
101 106 
101 107 
101 108 
101 112 
101 113 
101 123 
101 125 
101 134 
101 137 
102 103 
102 104 
102 105 
102 106 
102 107 
102 108 
102 113 
102 114 
102 124 
102 126 
102 135 
102 138 
103 104 
103 105 
103 106 
103 107 
103 108 
103 114 
103 115 
103 125 
103 127 
103 136 
103 139 
104 105 
104 106 
104 107 
104 108 
104 115 
104 116 
104 126 
104 128 
104 137 
104 140 
105 106 
105 107 
105 108 
105 116 
105 117 
105 127 
105 129 
105 138 
105 141 
106 107 
106 108 
106 117 
106 118 
106 128 
106 130 
106 139 
106 142 
107 108 
107 118 
107 119 
107 129 
107 131 
107 140 
107 143 
108 119 
108 120 
108 130 
108 132 
108 141 
108 144 
109 110 
109 111 
109 112 
109 113 
109 114 
109 115 
109 116 
109 117 
109 118 
109 119 
109 120 
109 121 
109 132 
109 133 
109 143 
110 111 
110 112 
110 113 
110 114 
110 115 
110 116 
110 117 
110 118 
110 119 
110 120 
110 121 
110 122 
110 134 
110 144 
111 112 
111 113 
111 114 
111 115 
111 116 
111 117 
111 118 
111 119 
111 120 
111 122 
111 123 
111 133 
111 135 
112 113 
112 114 
112 115 
112 116 
112 117 
112 118 
112 119 
112 120 
112 123 
112 124 
112 134 
112 136 
113 114 
113 115 
113 116 
113 117 
113 118 
113 119 
113 120 
113 124 
113 125 
113 135 
113 137 
114 115 
114 116 
114 117 
114 118 
114 119 
114 120 
114 125 
114 126 
114 136 
114 138 
115 116 
115 117 
115 118 
115 119 
115 120 
115 126 
115 127 
115 137 
115 139 
116 117 
116 118 
116 119 
116 120 
116 127 
116 128 
116 138 
116 140 
117 118 
117 119 
117 120 
117 128 
117 129 
117 139 
117 141 
118 119 
118 120 
118 129 
118 130 
118 140 
118 142 
119 120 
119 130 
119 131 
119 141 
119 143 
120 131 
120 132 
120 142 
120 144 
121 122 
121 123 
121 124 
121 125 
121 126 
121 127 
121 128 
121 129 
121 130 
121 131 
121 132 
121 133 
121 144 
122 123 
122 124 
122 125 
122 126 
122 127 
122 128 
122 129 
122 130 
122 131 
122 132 
122 133 
122 134 
123 124 
123 125 
123 126 
123 127 
123 128 
123 129 
123 130 
123 131 
123 132 
123 134 
123 135 
124 125 
124 126 
124 127 
124 128 
124 129 
124 130 
124 131 
124 132 
124 135 
124 136 
125 126 
125 127 
125 128 
125 129 
125 130 
125 131 
125 132 
125 136 
125 137 
126 127 
126 128 
126 129 
126 130 
126 131 
126 132 
126 137 
126 138 
127 128 
127 129 
127 130 
127 131 
127 132 
127 138 
127 139 
128 129 
128 130 
128 131 
128 132 
128 139 
128 140 
129 130 
129 131 
129 132 
129 140 
129 141 
130 131 
130 132 
130 141 
130 142 
131 132 
131 142 
131 143 
132 143 
132 144 
133 134 
133 135 
133 136 
133 137 
133 138 
133 139 
133 140 
133 141 
133 142 
133 143 
133 144 
134 135 
134 136 
134 137 
134 138 
134 139 
134 140 
134 141 
134 142 
134 143 
134 144 
135 136 
135 137 
135 138 
135 139 
135 140 
135 141 
135 142 
135 143 
135 144 
136 137 
136 138 
136 139 
136 140 
136 141 
136 142 
136 143 
136 144 
137 138 
137 139 
137 140 
137 141 
137 142 
137 143 
137 144 
138 139 
138 140 
138 141 
138 142 
138 143 
138 144 
139 140 
139 141 
139 142 
139 143 
139 144 
140 141 
140 142 
140 143 
140 144 
141 142 
141 143 
141 144 
142 143 
142 144 
143 144 
